c An instance of conditional planning (by rintanen@informatik.uni-freiburg.de)
p cnf 33  87 
e 14 15 16 17 18 19 20 21 22 23 24 25 0
a 28 0
e 1 2 3 4 5 6 7 8 9 10 11 12 13 26 27 29 30 31 32 33 0
-29 28 0
28 30 0
-28 29 0
-28 -30 0
-31 0
-32 0
-33 0
-14 -33 0
-14 -31 0
-4 -15 0
-1 -15 0
-5 -16 0
-2 -16 0
-18 -32 0
-18 -33 0
-9 -20 0
-4 -20 0
-10 -22 0
-5 -22 0
-19 33 0
-21 4 0
-23 5 0
-14 4 0
-7 -14 0
-14 1 0
-15 5 0
-8 -15 0
-15 2 0
-16 6 0
-16 -26 0
-16 3 0
-18 9 0
-12 -18 0
-18 4 0
-20 10 0
-13 -20 0
-20 5 0
-22 11 0
-22 -27 0
-22 6 0
-4 -19 0
-5 -21 0
-6 -23 0
-1 14 31 0
-2 1 15 0
-3 2 16 0
-31 1 0
-1 2 0
-2 3 0
-4 14 18 33 0
-5 4 15 20 0
-6 5 16 22 0
-33 4 19 0
-4 5 21 0
-5 6 23 0
-7 30 0
-8 7 0
-26 8 0
-30 7 14 0
-7 8 15 0
-8 16 26 0
-9 18 32 0
-10 9 20 0
-11 10 22 0
-32 9 0
-9 10 0
-10 11 0
-12 29 0
-13 12 0
-27 13 0
-29 12 18 0
-12 13 20 0
-13 22 27 0
-14 -18 0
-15 -20 0
-16 -22 0
-17 -24 0
-14 -19 0
-15 -21 0
-16 -23 0
-17 -25 0
-18 -19 0
-20 -21 0
-22 -23 0
-24 -25 0
-26 0
-27 0
